n=20;
t=24;
profit=[8 5 5 1 4 2 4 9 9 10 1 1 5 2 2 9 8 3 7 6];
length=[1 3 1 5 2 1 5 4 3 3 1 1 4 3 1 4 3 4 5 5];
min_deliver=[2 4 8 16 15 5 12 14 4 3 20 17 24 6 4 7 22 13 12 6];
max_deliver=[4 4 13 21 20 6 16 17 7 3 23 21 24 10 9 7 22 13 12 8];
surface=[5 2 5 2 4 4 3 4 2 3 2 4 3 4 2 1 2 3 2 3];
surface_capacity=20;
